c description: Graph pigeonhole principle formula on fast_gnp_random_graph(10,25,0.9)
c generator: CNFgen (0.9.0)
c copyright: (C) 2012-2020 Massimo Lauria <massimo.lauria@uniroma1.it>
c url: https://massimolauria.net/cnfgen
c
p cnf 225 926
1 2 3 4 5 6 7 8 9 10 11 12 13 14 15 16 17 18 19 20 21 0
22 23 24 25 26 27 28 29 30 31 32 33 34 35 36 37 38 39 40 41 42 43 44 0
45 46 47 48 49 50 51 52 53 54 55 56 57 58 59 60 61 62 63 64 65 66 67 68 69 0
70 71 72 73 74 75 76 77 78 79 80 81 82 83 84 85 86 87 88 89 90 91 92 93 94 0
95 96 97 98 99 100 101 102 103 104 105 106 107 108 109 110 111 112 113 114 115 116 0
117 118 119 120 121 122 123 124 125 126 127 128 129 130 131 132 133 134 135 136 137 0
138 139 140 141 142 143 144 145 146 147 148 149 150 151 152 153 154 155 156 157 158 159 0
160 161 162 163 164 165 166 167 168 169 170 171 172 173 174 175 176 177 178 179 0
180 181 182 183 184 185 186 187 188 189 190 191 192 193 194 195 196 197 198 199 200 201 202 0
203 204 205 206 207 208 209 210 211 212 213 214 215 216 217 218 219 220 221 222 223 224 225 0
-1 -45 0
-1 -70 0
-1 -95 0
-1 -138 0
-1 -160 0
-1 -180 0
-1 -203 0
-45 -70 0
-45 -95 0
-45 -138 0
-45 -160 0
-45 -180 0
-45 -203 0
-70 -95 0
-70 -138 0
-70 -160 0
-70 -180 0
-70 -203 0
-95 -138 0
-95 -160 0
-95 -180 0
-95 -203 0
-138 -160 0
-138 -180 0
-138 -203 0
-160 -180 0
-160 -203 0
-180 -203 0
-22 -46 0
-22 -71 0
-22 -96 0
-22 -181 0
-22 -204 0
-46 -71 0
-46 -96 0
-46 -181 0
-46 -204 0
-71 -96 0
-71 -181 0
-71 -204 0
-96 -181 0
-96 -204 0
-181 -204 0
-2 -23 0
-2 -47 0
-2 -72 0
-2 -97 0
-2 -117 0
-2 -139 0
-2 -161 0
-2 -182 0
-2 -205 0
-23 -47 0
-23 -72 0
-23 -97 0
-23 -117 0
-23 -139 0
-23 -161 0
-23 -182 0
-23 -205 0
-47 -72 0
-47 -97 0
-47 -117 0
-47 -139 0
-47 -161 0
-47 -182 0
-47 -205 0
-72 -97 0
-72 -117 0
-72 -139 0
-72 -161 0
-72 -182 0
-72 -205 0
-97 -117 0
-97 -139 0
-97 -161 0
-97 -182 0
-97 -205 0
-117 -139 0
-117 -161 0
-117 -182 0
-117 -205 0
-139 -161 0
-139 -182 0
-139 -205 0
-161 -182 0
-161 -205 0
-182 -205 0
-24 -48 0
-24 -73 0
-24 -98 0
-24 -140 0
-24 -183 0
-24 -206 0
-48 -73 0
-48 -98 0
-48 -140 0
-48 -183 0
-48 -206 0
-73 -98 0
-73 -140 0
-73 -183 0
-73 -206 0
-98 -140 0
-98 -183 0
-98 -206 0
-140 -183 0
-140 -206 0
-183 -206 0
-3 -25 0
-3 -49 0
-3 -74 0
-3 -99 0
-3 -118 0
-3 -162 0
-3 -184 0
-3 -207 0
-25 -49 0
-25 -74 0
-25 -99 0
-25 -118 0
-25 -162 0
-25 -184 0
-25 -207 0
-49 -74 0
-49 -99 0
-49 -118 0
-49 -162 0
-49 -184 0
-49 -207 0
-74 -99 0
-74 -118 0
-74 -162 0
-74 -184 0
-74 -207 0
-99 -118 0
-99 -162 0
-99 -184 0
-99 -207 0
-118 -162 0
-118 -184 0
-118 -207 0
-162 -184 0
-162 -207 0
-184 -207 0
-4 -26 0
-4 -50 0
-4 -75 0
-4 -100 0
-4 -119 0
-4 -141 0
-4 -163 0
-4 -185 0
-4 -208 0
-26 -50 0
-26 -75 0
-26 -100 0
-26 -119 0
-26 -141 0
-26 -163 0
-26 -185 0
-26 -208 0
-50 -75 0
-50 -100 0
-50 -119 0
-50 -141 0
-50 -163 0
-50 -185 0
-50 -208 0
-75 -100 0
-75 -119 0
-75 -141 0
-75 -163 0
-75 -185 0
-75 -208 0
-100 -119 0
-100 -141 0
-100 -163 0
-100 -185 0
-100 -208 0
-119 -141 0
-119 -163 0
-119 -185 0
-119 -208 0
-141 -163 0
-141 -185 0
-141 -208 0
-163 -185 0
-163 -208 0
-185 -208 0
-5 -27 0
-5 -51 0
-5 -76 0
-5 -101 0
-5 -120 0
-5 -142 0
-5 -164 0
-5 -186 0
-5 -209 0
-27 -51 0
-27 -76 0
-27 -101 0
-27 -120 0
-27 -142 0
-27 -164 0
-27 -186 0
-27 -209 0
-51 -76 0
-51 -101 0
-51 -120 0
-51 -142 0
-51 -164 0
-51 -186 0
-51 -209 0
-76 -101 0
-76 -120 0
-76 -142 0
-76 -164 0
-76 -186 0
-76 -209 0
-101 -120 0
-101 -142 0
-101 -164 0
-101 -186 0
-101 -209 0
-120 -142 0
-120 -164 0
-120 -186 0
-120 -209 0
-142 -164 0
-142 -186 0
-142 -209 0
-164 -186 0
-164 -209 0
-186 -209 0
-6 -28 0
-6 -52 0
-6 -77 0
-6 -102 0
-6 -121 0
-6 -143 0
-6 -165 0
-6 -187 0
-6 -210 0
-28 -52 0
-28 -77 0
-28 -102 0
-28 -121 0
-28 -143 0
-28 -165 0
-28 -187 0
-28 -210 0
-52 -77 0
-52 -102 0
-52 -121 0
-52 -143 0
-52 -165 0
-52 -187 0
-52 -210 0
-77 -102 0
-77 -121 0
-77 -143 0
-77 -165 0
-77 -187 0
-77 -210 0
-102 -121 0
-102 -143 0
-102 -165 0
-102 -187 0
-102 -210 0
-121 -143 0
-121 -165 0
-121 -187 0
-121 -210 0
-143 -165 0
-143 -187 0
-143 -210 0
-165 -187 0
-165 -210 0
-187 -210 0
-7 -29 0
-7 -53 0
-7 -78 0
-7 -122 0
-7 -144 0
-7 -166 0
-7 -188 0
-7 -211 0
-29 -53 0
-29 -78 0
-29 -122 0
-29 -144 0
-29 -166 0
-29 -188 0
-29 -211 0
-53 -78 0
-53 -122 0
-53 -144 0
-53 -166 0
-53 -188 0
-53 -211 0
-78 -122 0
-78 -144 0
-78 -166 0
-78 -188 0
-78 -211 0
-122 -144 0
-122 -166 0
-122 -188 0
-122 -211 0
-144 -166 0
-144 -188 0
-144 -211 0
-166 -188 0
-166 -211 0
-188 -211 0
-8 -30 0
-8 -54 0
-8 -79 0
-8 -103 0
-8 -123 0
-8 -145 0
-8 -167 0
-8 -189 0
-8 -212 0
-30 -54 0
-30 -79 0
-30 -103 0
-30 -123 0
-30 -145 0
-30 -167 0
-30 -189 0
-30 -212 0
-54 -79 0
-54 -103 0
-54 -123 0
-54 -145 0
-54 -167 0
-54 -189 0
-54 -212 0
-79 -103 0
-79 -123 0
-79 -145 0
-79 -167 0
-79 -189 0
-79 -212 0
-103 -123 0
-103 -145 0
-103 -167 0
-103 -189 0
-103 -212 0
-123 -145 0
-123 -167 0
-123 -189 0
-123 -212 0
-145 -167 0
-145 -189 0
-145 -212 0
-167 -189 0
-167 -212 0
-189 -212 0
-9 -55 0
-9 -80 0
-9 -104 0
-9 -124 0
-9 -146 0
-9 -168 0
-9 -190 0
-9 -213 0
-55 -80 0
-55 -104 0
-55 -124 0
-55 -146 0
-55 -168 0
-55 -190 0
-55 -213 0
-80 -104 0
-80 -124 0
-80 -146 0
-80 -168 0
-80 -190 0
-80 -213 0
-104 -124 0
-104 -146 0
-104 -168 0
-104 -190 0
-104 -213 0
-124 -146 0
-124 -168 0
-124 -190 0
-124 -213 0
-146 -168 0
-146 -190 0
-146 -213 0
-168 -190 0
-168 -213 0
-190 -213 0
-10 -31 0
-10 -56 0
-10 -81 0
-10 -105 0
-10 -125 0
-10 -147 0
-10 -169 0
-10 -191 0
-10 -214 0
-31 -56 0
-31 -81 0
-31 -105 0
-31 -125 0
-31 -147 0
-31 -169 0
-31 -191 0
-31 -214 0
-56 -81 0
-56 -105 0
-56 -125 0
-56 -147 0
-56 -169 0
-56 -191 0
-56 -214 0
-81 -105 0
-81 -125 0
-81 -147 0
-81 -169 0
-81 -191 0
-81 -214 0
-105 -125 0
-105 -147 0
-105 -169 0
-105 -191 0
-105 -214 0
-125 -147 0
-125 -169 0
-125 -191 0
-125 -214 0
-147 -169 0
-147 -191 0
-147 -214 0
-169 -191 0
-169 -214 0
-191 -214 0
-11 -32 0
-11 -57 0
-11 -82 0
-11 -126 0
-11 -170 0
-11 -192 0
-11 -215 0
-32 -57 0
-32 -82 0
-32 -126 0
-32 -170 0
-32 -192 0
-32 -215 0
-57 -82 0
-57 -126 0
-57 -170 0
-57 -192 0
-57 -215 0
-82 -126 0
-82 -170 0
-82 -192 0
-82 -215 0
-126 -170 0
-126 -192 0
-126 -215 0
-170 -192 0
-170 -215 0
-192 -215 0
-12 -33 0
-12 -58 0
-12 -83 0
-12 -106 0
-12 -148 0
-12 -171 0
-12 -193 0
-12 -216 0
-33 -58 0
-33 -83 0
-33 -106 0
-33 -148 0
-33 -171 0
-33 -193 0
-33 -216 0
-58 -83 0
-58 -106 0
-58 -148 0
-58 -171 0
-58 -193 0
-58 -216 0
-83 -106 0
-83 -148 0
-83 -171 0
-83 -193 0
-83 -216 0
-106 -148 0
-106 -171 0
-106 -193 0
-106 -216 0
-148 -171 0
-148 -193 0
-148 -216 0
-171 -193 0
-171 -216 0
-193 -216 0
-13 -34 0
-13 -59 0
-13 -84 0
-13 -107 0
-13 -127 0
-13 -149 0
-34 -59 0
-34 -84 0
-34 -107 0
-34 -127 0
-34 -149 0
-59 -84 0
-59 -107 0
-59 -127 0
-59 -149 0
-84 -107 0
-84 -127 0
-84 -149 0
-107 -127 0
-107 -149 0
-127 -149 0
-14 -35 0
-14 -60 0
-14 -85 0
-14 -108 0
-14 -128 0
-14 -150 0
-14 -172 0
-14 -194 0
-14 -217 0
-35 -60 0
-35 -85 0
-35 -108 0
-35 -128 0
-35 -150 0
-35 -172 0
-35 -194 0
-35 -217 0
-60 -85 0
-60 -108 0
-60 -128 0
-60 -150 0
-60 -172 0
-60 -194 0
-60 -217 0
-85 -108 0
-85 -128 0
-85 -150 0
-85 -172 0
-85 -194 0
-85 -217 0
-108 -128 0
-108 -150 0
-108 -172 0
-108 -194 0
-108 -217 0
-128 -150 0
-128 -172 0
-128 -194 0
-128 -217 0
-150 -172 0
-150 -194 0
-150 -217 0
-172 -194 0
-172 -217 0
-194 -217 0
-15 -36 0
-15 -61 0
-15 -86 0
-15 -109 0
-15 -129 0
-15 -151 0
-15 -173 0
-15 -195 0
-15 -218 0
-36 -61 0
-36 -86 0
-36 -109 0
-36 -129 0
-36 -151 0
-36 -173 0
-36 -195 0
-36 -218 0
-61 -86 0
-61 -109 0
-61 -129 0
-61 -151 0
-61 -173 0
-61 -195 0
-61 -218 0
-86 -109 0
-86 -129 0
-86 -151 0
-86 -173 0
-86 -195 0
-86 -218 0
-109 -129 0
-109 -151 0
-109 -173 0
-109 -195 0
-109 -218 0
-129 -151 0
-129 -173 0
-129 -195 0
-129 -218 0
-151 -173 0
-151 -195 0
-151 -218 0
-173 -195 0
-173 -218 0
-195 -218 0
-37 -62 0
-37 -87 0
-37 -110 0
-37 -130 0
-37 -152 0
-37 -174 0
-37 -196 0
-37 -219 0
-62 -87 0
-62 -110 0
-62 -130 0
-62 -152 0
-62 -174 0
-62 -196 0
-62 -219 0
-87 -110 0
-87 -130 0
-87 -152 0
-87 -174 0
-87 -196 0
-87 -219 0
-110 -130 0
-110 -152 0
-110 -174 0
-110 -196 0
-110 -219 0
-130 -152 0
-130 -174 0
-130 -196 0
-130 -219 0
-152 -174 0
-152 -196 0
-152 -219 0
-174 -196 0
-174 -219 0
-196 -219 0
-16 -38 0
-16 -63 0
-16 -88 0
-16 -131 0
-16 -153 0
-16 -175 0
-16 -197 0
-16 -220 0
-38 -63 0
-38 -88 0
-38 -131 0
-38 -153 0
-38 -175 0
-38 -197 0
-38 -220 0
-63 -88 0
-63 -131 0
-63 -153 0
-63 -175 0
-63 -197 0
-63 -220 0
-88 -131 0
-88 -153 0
-88 -175 0
-88 -197 0
-88 -220 0
-131 -153 0
-131 -175 0
-131 -197 0
-131 -220 0
-153 -175 0
-153 -197 0
-153 -220 0
-175 -197 0
-175 -220 0
-197 -220 0
-39 -64 0
-39 -89 0
-39 -111 0
-39 -132 0
-39 -154 0
-39 -198 0
-39 -221 0
-64 -89 0
-64 -111 0
-64 -132 0
-64 -154 0
-64 -198 0
-64 -221 0
-89 -111 0
-89 -132 0
-89 -154 0
-89 -198 0
-89 -221 0
-111 -132 0
-111 -154 0
-111 -198 0
-111 -221 0
-132 -154 0
-132 -198 0
-132 -221 0
-154 -198 0
-154 -221 0
-198 -221 0
-17 -40 0
-17 -65 0
-17 -90 0
-17 -112 0
-17 -133 0
-17 -155 0
-17 -176 0
-17 -199 0
-17 -222 0
-40 -65 0
-40 -90 0
-40 -112 0
-40 -133 0
-40 -155 0
-40 -176 0
-40 -199 0
-40 -222 0
-65 -90 0
-65 -112 0
-65 -133 0
-65 -155 0
-65 -176 0
-65 -199 0
-65 -222 0
-90 -112 0
-90 -133 0
-90 -155 0
-90 -176 0
-90 -199 0
-90 -222 0
-112 -133 0
-112 -155 0
-112 -176 0
-112 -199 0
-112 -222 0
-133 -155 0
-133 -176 0
-133 -199 0
-133 -222 0
-155 -176 0
-155 -199 0
-155 -222 0
-176 -199 0
-176 -222 0
-199 -222 0
-18 -41 0
-18 -66 0
-18 -91 0
-18 -113 0
-18 -134 0
-18 -156 0
-18 -223 0
-41 -66 0
-41 -91 0
-41 -113 0
-41 -134 0
-41 -156 0
-41 -223 0
-66 -91 0
-66 -113 0
-66 -134 0
-66 -156 0
-66 -223 0
-91 -113 0
-91 -134 0
-91 -156 0
-91 -223 0
-113 -134 0
-113 -156 0
-113 -223 0
-134 -156 0
-134 -223 0
-156 -223 0
-19 -42 0
-19 -67 0
-19 -92 0
-19 -114 0
-19 -135 0
-19 -157 0
-19 -177 0
-19 -200 0
-42 -67 0
-42 -92 0
-42 -114 0
-42 -135 0
-42 -157 0
-42 -177 0
-42 -200 0
-67 -92 0
-67 -114 0
-67 -135 0
-67 -157 0
-67 -177 0
-67 -200 0
-92 -114 0
-92 -135 0
-92 -157 0
-92 -177 0
-92 -200 0
-114 -135 0
-114 -157 0
-114 -177 0
-114 -200 0
-135 -157 0
-135 -177 0
-135 -200 0
-157 -177 0
-157 -200 0
-177 -200 0
-20 -43 0
-20 -68 0
-20 -93 0
-20 -115 0
-20 -136 0
-20 -158 0
-20 -178 0
-20 -201 0
-20 -224 0
-43 -68 0
-43 -93 0
-43 -115 0
-43 -136 0
-43 -158 0
-43 -178 0
-43 -201 0
-43 -224 0
-68 -93 0
-68 -115 0
-68 -136 0
-68 -158 0
-68 -178 0
-68 -201 0
-68 -224 0
-93 -115 0
-93 -136 0
-93 -158 0
-93 -178 0
-93 -201 0
-93 -224 0
-115 -136 0
-115 -158 0
-115 -178 0
-115 -201 0
-115 -224 0
-136 -158 0
-136 -178 0
-136 -201 0
-136 -224 0
-158 -178 0
-158 -201 0
-158 -224 0
-178 -201 0
-178 -224 0
-201 -224 0
-21 -44 0
-21 -69 0
-21 -94 0
-21 -116 0
-21 -137 0
-21 -159 0
-21 -179 0
-21 -202 0
-21 -225 0
-44 -69 0
-44 -94 0
-44 -116 0
-44 -137 0
-44 -159 0
-44 -179 0
-44 -202 0
-44 -225 0
-69 -94 0
-69 -116 0
-69 -137 0
-69 -159 0
-69 -179 0
-69 -202 0
-69 -225 0
-94 -116 0
-94 -137 0
-94 -159 0
-94 -179 0
-94 -202 0
-94 -225 0
-116 -137 0
-116 -159 0
-116 -179 0
-116 -202 0
-116 -225 0
-137 -159 0
-137 -179 0
-137 -202 0
-137 -225 0
-159 -179 0
-159 -202 0
-159 -225 0
-179 -202 0
-179 -225 0
-202 -225 0